NAME : kroA100.50783.tour
COMMENT : Cost = 5396_50783
COMMENT : Found by LKH [Keld Helsgaun] Thu Nov 16 17:33:43 2017
TYPE : TOUR
DIMENSION : 109
TOUR_SECTION
1
58
61
30
48
106
47
91
98
23
77
20
12
27
86
35
62
60
45
32
11
15
17
59
74
21
72
102
73
33
76
13
50
69
108
57
55
43
71
34
9
105
7
83
46
3
100
14
29
51
93
103
28
25
85
39
96
78
52
5
37
68
81
109
40
54
2
95
82
44
64
67
107
87
41
104
8
42
89
31
80
56
97
4
65
26
66
70
22
94
16
88
53
19
75
92
101
6
49
90
79
18
24
38
99
36
84
10
63
-1
EOF
